
MOSEK Version 8.1.0.72 (Build date: 2018-12-18 10:56:33)
Copyright (c) MOSEK ApS, Denmark. WWW: mosek.com
Platform: Linux/64-X86

Open file 'BigDual.mps'
Reading started.
Using 'COST' as objective vector
Read 6000006 number of A nonzeros in 3.45 seconds.
Using 'RHS' as rhs vector
Reading terminated. Time: 5.56

Read summary
  Type             : LO (linear optimization problem)
  Objective sense  : min
  Scalar variables : 6           
  Matrix variables : 0           
  Constraints      : 1000000     
  Cones            : 0           
  Time             : 5.6     

Problem
  Name                   : GENERIC         
  Objective sense        : min             
  Type                   : LO (linear optimization problem)
  Constraints            : 1000000         
  Cones                  : 0               
  Scalar variables       : 6               
  Matrix variables       : 0               
  Integer variables      : 0               

Optimizer started.
Simplex optimizer started.
Primal simplex optimizer started.
Primal simplex optimizer setup started.
Primal simplex optimizer setup terminated.
Optimizer  - solved problem         : the dual        
Optimizer  - Constraints            : 6               
Optimizer  - Scalar variables       : 1000000           conic                  : 0               
Optimizer  - hotstart               : no              
ITER      DEGITER(%)  PFEAS       DFEAS       POBJ                  DOBJ                  TIME      TOTTIME 
0         0.00        NA          6.19e+01    NA                    -0.0000000000e+00     0.54      4.11    
55        0.00        NA          0.00e+00    NA                    2.4580497877e+03      2.93      6.50    
Primal simplex optimizer terminated.
Simplex optimizer terminated. Time: 8.04. 

Optimizer terminated. Time: 8.04    


Basic solution summary
  Problem status  : PRIMAL_AND_DUAL_FEASIBLE
  Solution status : OPTIMAL
  Primal.  obj: 2.4580497877e+03    nrm: 4e+02    Viol.  con: 1e-13    var: 1e-09  
  Dual.    obj: 2.4580497877e+03    nrm: 4e+00    Viol.  con: 0e+00    var: 6e-14  

Optimizer summary
  Optimizer                 -                        time: 8.04    
    Interior-point          - iterations : 0         time: 0.00    
      Basis identification  -                        time: 0.00    
        Primal              - iterations : 0         time: 0.00    
        Dual                - iterations : 0         time: 0.00    
        Clean primal        - iterations : 0         time: 0.00    
        Clean dual          - iterations : 0         time: 0.00    
    Simplex                 -                        time: 8.04    
      Primal simplex        - iterations : 55        time: 2.93    
      Dual simplex          - iterations : 0         time: 0.00    
    Mixed integer           - relaxations: 0         time: 0.00    

Open file 'BigDual.bas'
Start writing.
done writing. Time: 6.03

Return code - 0  [MSK_RES_OK]
